p cnf 571 2676
6 0
11 0
16 0
21 0
12 0
17 0
22 0
18 0
23 0
24 0
-6 -12 11 0
-6 -17 16 0
-6 -22 21 0
-11 -8 6 0
-11 -18 16 0
-11 -23 21 0
-16 -9 6 0
-16 -14 11 0
-16 -24 21 0
-21 -10 6 0
-21 -15 11 0
-21 -20 16 0
-2 -11 12 0
-2 -16 17 0
-2 -21 22 0
-12 -3 2 0
-12 -18 17 0
-12 -23 22 0
-17 -4 2 0
-17 -14 12 0
-17 -24 22 0
-22 -5 2 0
-22 -15 12 0
-22 -20 17 0
-3 -6 8 0
-3 -16 18 0
-3 -21 23 0
-8 -2 3 0
-8 -17 18 0
-8 -22 23 0
-18 -4 3 0
-18 -9 8 0
-18 -24 23 0
-23 -5 3 0
-23 -10 8 0
-23 -20 18 0
-4 -6 9 0
-4 -11 14 0
-4 -21 24 0
-9 -2 4 0
-9 -12 14 0
-9 -22 24 0
-14 -3 4 0
-14 -8 9 0
-14 -23 24 0
-24 -5 4 0
-24 -10 9 0
-24 -15 14 0
-5 -6 10 0
-5 -11 15 0
-5 -16 20 0
-10 -2 5 0
-10 -12 15 0
-10 -17 20 0
-15 -3 5 0
-15 -8 10 0
-15 -18 20 0
-20 -4 5 0
-20 -9 10 0
-20 -14 15 0
-31 -37 36 0
-31 -42 41 0
-31 -47 46 0
-36 -33 31 0
-36 -43 41 0
-36 -48 46 0
-41 -34 31 0
-41 -39 36 0
-41 -49 46 0
-46 -35 31 0
-46 -40 36 0
-46 -45 41 0
-27 -36 37 0
-27 -41 42 0
-27 -46 47 0
-37 -28 27 0
-37 -43 42 0
-37 -48 47 0
-42 -29 27 0
-42 -39 37 0
-42 -49 47 0
-47 -30 27 0
-47 -40 37 0
-47 -45 42 0
-28 -31 33 0
-28 -41 43 0
-28 -46 48 0
-33 -27 28 0
-33 -42 43 0
-33 -47 48 0
-43 -29 28 0
-43 -34 33 0
-43 -49 48 0
-48 -30 28 0
-48 -35 33 0
-48 -45 43 0
-29 -31 34 0
-29 -36 39 0
-29 -46 49 0
-34 -27 29 0
-34 -37 39 0
-34 -47 49 0
-39 -28 29 0
-39 -33 34 0
-39 -48 49 0
-49 -30 29 0
-49 -35 34 0
-49 -40 39 0
-30 -31 35 0
-30 -36 40 0
-30 -41 45 0
-35 -27 30 0
-35 -37 40 0
-35 -42 45 0
-40 -28 30 0
-40 -33 35 0
-40 -43 45 0
-45 -29 30 0
-45 -34 35 0
-45 -39 40 0
-56 -62 61 0
-56 -67 66 0
-56 -72 71 0
-61 -58 56 0
-61 -68 66 0
-61 -73 71 0
-66 -59 56 0
-66 -64 61 0
-66 -74 71 0
-71 -60 56 0
-71 -65 61 0
-71 -70 66 0
-52 -61 62 0
-52 -66 67 0
-52 -71 72 0
-62 -53 52 0
-62 -68 67 0
-62 -73 72 0
-67 -54 52 0
-67 -64 62 0
-67 -74 72 0
-72 -55 52 0
-72 -65 62 0
-72 -70 67 0
-53 -56 58 0
-53 -66 68 0
-53 -71 73 0
-58 -52 53 0
-58 -67 68 0
-58 -72 73 0
-68 -54 53 0
-68 -59 58 0
-68 -74 73 0
-73 -55 53 0
-73 -60 58 0
-73 -70 68 0
-54 -56 59 0
-54 -61 64 0
-54 -71 74 0
-59 -52 54 0
-59 -62 64 0
-59 -72 74 0
-64 -53 54 0
-64 -58 59 0
-64 -73 74 0
-74 -55 54 0
-74 -60 59 0
-74 -65 64 0
-55 -56 60 0
-55 -61 65 0
-55 -66 70 0
-60 -52 55 0
-60 -62 65 0
-60 -67 70 0
-65 -53 55 0
-65 -58 60 0
-65 -68 70 0
-70 -54 55 0
-70 -59 60 0
-70 -64 65 0
-81 -87 86 0
-81 -92 91 0
-81 -97 96 0
-86 -83 81 0
-86 -93 91 0
-86 -98 96 0
-91 -84 81 0
-91 -89 86 0
-91 -99 96 0
-96 -85 81 0
-96 -90 86 0
-96 -95 91 0
-77 -86 87 0
-77 -91 92 0
-77 -96 97 0
-87 -78 77 0
-87 -93 92 0
-87 -98 97 0
-92 -79 77 0
-92 -89 87 0
-92 -99 97 0
-97 -80 77 0
-97 -90 87 0
-97 -95 92 0
-78 -81 83 0
-78 -91 93 0
-78 -96 98 0
-83 -77 78 0
-83 -92 93 0
-83 -97 98 0
-93 -79 78 0
-93 -84 83 0
-93 -99 98 0
-98 -80 78 0
-98 -85 83 0
-98 -95 93 0
-79 -81 84 0
-79 -86 89 0
-79 -96 99 0
-84 -77 79 0
-84 -87 89 0
-84 -97 99 0
-89 -78 79 0
-89 -83 84 0
-89 -98 99 0
-99 -80 79 0
-99 -85 84 0
-99 -90 89 0
-80 -81 85 0
-80 -86 90 0
-80 -91 95 0
-85 -77 80 0
-85 -87 90 0
-85 -92 95 0
-90 -78 80 0
-90 -83 85 0
-90 -93 95 0
-95 -79 80 0
-95 -84 85 0
-95 -89 90 0
-106 -112 111 0
-106 -117 116 0
-106 -122 121 0
-111 -108 106 0
-111 -118 116 0
-111 -123 121 0
-116 -109 106 0
-116 -114 111 0
-116 -124 121 0
-121 -110 106 0
-121 -115 111 0
-121 -120 116 0
-102 -111 112 0
-102 -116 117 0
-102 -121 122 0
-112 -103 102 0
-112 -118 117 0
-112 -123 122 0
-117 -104 102 0
-117 -114 112 0
-117 -124 122 0
-122 -105 102 0
-122 -115 112 0
-122 -120 117 0
-103 -106 108 0
-103 -116 118 0
-103 -121 123 0
-108 -102 103 0
-108 -117 118 0
-108 -122 123 0
-118 -104 103 0
-118 -109 108 0
-118 -124 123 0
-123 -105 103 0
-123 -110 108 0
-123 -120 118 0
-104 -106 109 0
-104 -111 114 0
-104 -121 124 0
-109 -102 104 0
-109 -112 114 0
-109 -122 124 0
-114 -103 104 0
-114 -108 109 0
-114 -123 124 0
-124 -105 104 0
-124 -110 109 0
-124 -115 114 0
-105 -106 110 0
-105 -111 115 0
-105 -116 120 0
-110 -102 105 0
-110 -112 115 0
-110 -117 120 0
-115 -103 105 0
-115 -108 110 0
-115 -118 120 0
-120 -104 105 0
-120 -109 110 0
-120 -114 115 0
-131 -137 136 0
-131 -142 141 0
-131 -147 146 0
-136 -133 131 0
-136 -143 141 0
-136 -148 146 0
-141 -134 131 0
-141 -139 136 0
-141 -149 146 0
-146 -135 131 0
-146 -140 136 0
-146 -145 141 0
-127 -136 137 0
-127 -141 142 0
-127 -146 147 0
-137 -128 127 0
-137 -143 142 0
-137 -148 147 0
-142 -129 127 0
-142 -139 137 0
-142 -149 147 0
-147 -130 127 0
-147 -140 137 0
-147 -145 142 0
-128 -131 133 0
-128 -141 143 0
-128 -146 148 0
-133 -127 128 0
-133 -142 143 0
-133 -147 148 0
-143 -129 128 0
-143 -134 133 0
-143 -149 148 0
-148 -130 128 0
-148 -135 133 0
-148 -145 143 0
-129 -131 134 0
-129 -136 139 0
-129 -146 149 0
-134 -127 129 0
-134 -137 139 0
-134 -147 149 0
-139 -128 129 0
-139 -133 134 0
-139 -148 149 0
-149 -130 129 0
-149 -135 134 0
-149 -140 139 0
-130 -131 135 0
-130 -136 140 0
-130 -141 145 0
-135 -127 130 0
-135 -137 140 0
-135 -142 145 0
-140 -128 130 0
-140 -133 135 0
-140 -143 145 0
-145 -129 130 0
-145 -134 135 0
-145 -139 140 0
-156 -162 161 0
-156 -167 166 0
-156 -172 171 0
-161 -158 156 0
-161 -168 166 0
-161 -173 171 0
-166 -159 156 0
-166 -164 161 0
-166 -174 171 0
-171 -160 156 0
-171 -165 161 0
-171 -170 166 0
-152 -161 162 0
-152 -166 167 0
-152 -171 172 0
-162 -153 152 0
-162 -168 167 0
-162 -173 172 0
-167 -154 152 0
-167 -164 162 0
-167 -174 172 0
-172 -155 152 0
-172 -165 162 0
-172 -170 167 0
-153 -156 158 0
-153 -166 168 0
-153 -171 173 0
-158 -152 153 0
-158 -167 168 0
-158 -172 173 0
-168 -154 153 0
-168 -159 158 0
-168 -174 173 0
-173 -155 153 0
-173 -160 158 0
-173 -170 168 0
-154 -156 159 0
-154 -161 164 0
-154 -171 174 0
-159 -152 154 0
-159 -162 164 0
-159 -172 174 0
-164 -153 154 0
-164 -158 159 0
-164 -173 174 0
-174 -155 154 0
-174 -160 159 0
-174 -165 164 0
-155 -156 160 0
-155 -161 165 0
-155 -166 170 0
-160 -152 155 0
-160 -162 165 0
-160 -167 170 0
-165 -153 155 0
-165 -158 160 0
-165 -168 170 0
-170 -154 155 0
-170 -159 160 0
-170 -164 165 0
-181 -187 186 0
-181 -192 191 0
-181 -197 196 0
-186 -183 181 0
-186 -193 191 0
-186 -198 196 0
-191 -184 181 0
-191 -189 186 0
-191 -199 196 0
-196 -185 181 0
-196 -190 186 0
-196 -195 191 0
-177 -186 187 0
-177 -191 192 0
-177 -196 197 0
-187 -178 177 0
-187 -193 192 0
-187 -198 197 0
-192 -179 177 0
-192 -189 187 0
-192 -199 197 0
-197 -180 177 0
-197 -190 187 0
-197 -195 192 0
-178 -181 183 0
-178 -191 193 0
-178 -196 198 0
-183 -177 178 0
-183 -192 193 0
-183 -197 198 0
-193 -179 178 0
-193 -184 183 0
-193 -199 198 0
-198 -180 178 0
-198 -185 183 0
-198 -195 193 0
-179 -181 184 0
-179 -186 189 0
-179 -196 199 0
-184 -177 179 0
-184 -187 189 0
-184 -197 199 0
-189 -178 179 0
-189 -183 184 0
-189 -198 199 0
-199 -180 179 0
-199 -185 184 0
-199 -190 189 0
-180 -181 185 0
-180 -186 190 0
-180 -191 195 0
-185 -177 180 0
-185 -187 190 0
-185 -192 195 0
-190 -178 180 0
-190 -183 185 0
-190 -193 195 0
-195 -179 180 0
-195 -184 185 0
-195 -189 190 0
-206 -212 211 0
-206 -217 216 0
-206 -222 221 0
-211 -208 206 0
-211 -218 216 0
-211 -223 221 0
-216 -209 206 0
-216 -214 211 0
-216 -224 221 0
-221 -210 206 0
-221 -215 211 0
-221 -220 216 0
-202 -211 212 0
-202 -216 217 0
-202 -221 222 0
-212 -203 202 0
-212 -218 217 0
-212 -223 222 0
-217 -204 202 0
-217 -214 212 0
-217 -224 222 0
-222 -205 202 0
-222 -215 212 0
-222 -220 217 0
-203 -206 208 0
-203 -216 218 0
-203 -221 223 0
-208 -202 203 0
-208 -217 218 0
-208 -222 223 0
-218 -204 203 0
-218 -209 208 0
-218 -224 223 0
-223 -205 203 0
-223 -210 208 0
-223 -220 218 0
-204 -206 209 0
-204 -211 214 0
-204 -221 224 0
-209 -202 204 0
-209 -212 214 0
-209 -222 224 0
-214 -203 204 0
-214 -208 209 0
-214 -223 224 0
-224 -205 204 0
-224 -210 209 0
-224 -215 214 0
-205 -206 210 0
-205 -211 215 0
-205 -216 220 0
-210 -202 205 0
-210 -212 215 0
-210 -217 220 0
-215 -203 205 0
-215 -208 210 0
-215 -218 220 0
-220 -204 205 0
-220 -209 210 0
-220 -214 215 0
6 2 0
-6 -2 0
11 3 0
-11 -3 0
16 4 0
-16 -4 0
21 5 0
-21 -5 0
2 6 0
-2 -6 0
12 8 0
-12 -8 0
17 9 0
-17 -9 0
22 10 0
-22 -10 0
3 11 0
-3 -11 0
8 12 0
-8 -12 0
18 14 0
-18 -14 0
23 15 0
-23 -15 0
4 16 0
-4 -16 0
9 17 0
-9 -17 0
14 18 0
-14 -18 0
24 20 0
-24 -20 0
5 21 0
-5 -21 0
10 22 0
-10 -22 0
15 23 0
-15 -23 0
20 24 0
-20 -24 0
31 27 0
-31 -27 0
36 28 0
-36 -28 0
41 29 0
-41 -29 0
46 30 0
-46 -30 0
27 31 0
-27 -31 0
37 33 0
-37 -33 0
42 34 0
-42 -34 0
47 35 0
-47 -35 0
28 36 0
-28 -36 0
33 37 0
-33 -37 0
43 39 0
-43 -39 0
48 40 0
-48 -40 0
29 41 0
-29 -41 0
34 42 0
-34 -42 0
39 43 0
-39 -43 0
49 45 0
-49 -45 0
30 46 0
-30 -46 0
35 47 0
-35 -47 0
40 48 0
-40 -48 0
45 49 0
-45 -49 0
56 52 0
-56 -52 0
61 53 0
-61 -53 0
66 54 0
-66 -54 0
71 55 0
-71 -55 0
52 56 0
-52 -56 0
62 58 0
-62 -58 0
67 59 0
-67 -59 0
72 60 0
-72 -60 0
53 61 0
-53 -61 0
58 62 0
-58 -62 0
68 64 0
-68 -64 0
73 65 0
-73 -65 0
54 66 0
-54 -66 0
59 67 0
-59 -67 0
64 68 0
-64 -68 0
74 70 0
-74 -70 0
55 71 0
-55 -71 0
60 72 0
-60 -72 0
65 73 0
-65 -73 0
70 74 0
-70 -74 0
81 77 0
-81 -77 0
86 78 0
-86 -78 0
91 79 0
-91 -79 0
96 80 0
-96 -80 0
77 81 0
-77 -81 0
87 83 0
-87 -83 0
92 84 0
-92 -84 0
97 85 0
-97 -85 0
78 86 0
-78 -86 0
83 87 0
-83 -87 0
93 89 0
-93 -89 0
98 90 0
-98 -90 0
79 91 0
-79 -91 0
84 92 0
-84 -92 0
89 93 0
-89 -93 0
99 95 0
-99 -95 0
80 96 0
-80 -96 0
85 97 0
-85 -97 0
90 98 0
-90 -98 0
95 99 0
-95 -99 0
106 102 0
-106 -102 0
111 103 0
-111 -103 0
116 104 0
-116 -104 0
121 105 0
-121 -105 0
102 106 0
-102 -106 0
112 108 0
-112 -108 0
117 109 0
-117 -109 0
122 110 0
-122 -110 0
103 111 0
-103 -111 0
108 112 0
-108 -112 0
118 114 0
-118 -114 0
123 115 0
-123 -115 0
104 116 0
-104 -116 0
109 117 0
-109 -117 0
114 118 0
-114 -118 0
124 120 0
-124 -120 0
105 121 0
-105 -121 0
110 122 0
-110 -122 0
115 123 0
-115 -123 0
120 124 0
-120 -124 0
131 127 0
-131 -127 0
136 128 0
-136 -128 0
141 129 0
-141 -129 0
146 130 0
-146 -130 0
127 131 0
-127 -131 0
137 133 0
-137 -133 0
142 134 0
-142 -134 0
147 135 0
-147 -135 0
128 136 0
-128 -136 0
133 137 0
-133 -137 0
143 139 0
-143 -139 0
148 140 0
-148 -140 0
129 141 0
-129 -141 0
134 142 0
-134 -142 0
139 143 0
-139 -143 0
149 145 0
-149 -145 0
130 146 0
-130 -146 0
135 147 0
-135 -147 0
140 148 0
-140 -148 0
145 149 0
-145 -149 0
156 152 0
-156 -152 0
161 153 0
-161 -153 0
166 154 0
-166 -154 0
171 155 0
-171 -155 0
152 156 0
-152 -156 0
162 158 0
-162 -158 0
167 159 0
-167 -159 0
172 160 0
-172 -160 0
153 161 0
-153 -161 0
158 162 0
-158 -162 0
168 164 0
-168 -164 0
173 165 0
-173 -165 0
154 166 0
-154 -166 0
159 167 0
-159 -167 0
164 168 0
-164 -168 0
174 170 0
-174 -170 0
155 171 0
-155 -171 0
160 172 0
-160 -172 0
165 173 0
-165 -173 0
170 174 0
-170 -174 0
181 177 0
-181 -177 0
186 178 0
-186 -178 0
191 179 0
-191 -179 0
196 180 0
-196 -180 0
177 181 0
-177 -181 0
187 183 0
-187 -183 0
192 184 0
-192 -184 0
197 185 0
-197 -185 0
178 186 0
-178 -186 0
183 187 0
-183 -187 0
193 189 0
-193 -189 0
198 190 0
-198 -190 0
179 191 0
-179 -191 0
184 192 0
-184 -192 0
189 193 0
-189 -193 0
199 195 0
-199 -195 0
180 196 0
-180 -196 0
185 197 0
-185 -197 0
190 198 0
-190 -198 0
195 199 0
-195 -199 0
206 202 0
-206 -202 0
211 203 0
-211 -203 0
216 204 0
-216 -204 0
221 205 0
-221 -205 0
202 206 0
-202 -206 0
212 208 0
-212 -208 0
217 209 0
-217 -209 0
222 210 0
-222 -210 0
203 211 0
-203 -211 0
208 212 0
-208 -212 0
218 214 0
-218 -214 0
223 215 0
-223 -215 0
204 216 0
-204 -216 0
209 217 0
-209 -217 0
214 218 0
-214 -218 0
224 220 0
-224 -220 0
205 221 0
-205 -221 0
210 222 0
-210 -222 0
215 223 0
-215 -223 0
220 224 0
-220 -224 0
-376 -390 0
-376 -404 0
-376 -418 0
-376 -432 0
-376 -446 0
-376 -460 0
-376 -474 0
-390 -404 0
-390 -418 0
-390 -432 0
-390 -446 0
-390 -460 0
-390 -474 0
-404 -418 0
-404 -432 0
-404 -446 0
-404 -460 0
-404 -474 0
-418 -432 0
-418 -446 0
-418 -460 0
-418 -474 0
-432 -446 0
-432 -460 0
-432 -474 0
-446 -460 0
-446 -474 0
-460 -474 0
-377 -391 0
-377 -405 0
-377 -419 0
-377 -433 0
-377 -447 0
-377 -461 0
-377 -475 0
-391 -405 0
-391 -419 0
-391 -433 0
-391 -447 0
-391 -461 0
-391 -475 0
-405 -419 0
-405 -433 0
-405 -447 0
-405 -461 0
-405 -475 0
-419 -433 0
-419 -447 0
-419 -461 0
-419 -475 0
-433 -447 0
-433 -461 0
-433 -475 0
-447 -461 0
-447 -475 0
-461 -475 0
-378 -392 0
-378 -406 0
-378 -420 0
-378 -434 0
-378 -448 0
-378 -462 0
-378 -476 0
-392 -406 0
-392 -420 0
-392 -434 0
-392 -448 0
-392 -462 0
-392 -476 0
-406 -420 0
-406 -434 0
-406 -448 0
-406 -462 0
-406 -476 0
-420 -434 0
-420 -448 0
-420 -462 0
-420 -476 0
-434 -448 0
-434 -462 0
-434 -476 0
-448 -462 0
-448 -476 0
-462 -476 0
-379 -393 0
-379 -407 0
-379 -421 0
-379 -435 0
-379 -449 0
-379 -463 0
-379 -477 0
-393 -407 0
-393 -421 0
-393 -435 0
-393 -449 0
-393 -463 0
-393 -477 0
-407 -421 0
-407 -435 0
-407 -449 0
-407 -463 0
-407 -477 0
-421 -435 0
-421 -449 0
-421 -463 0
-421 -477 0
-435 -449 0
-435 -463 0
-435 -477 0
-449 -463 0
-449 -477 0
-463 -477 0
-380 -394 0
-380 -408 0
-380 -422 0
-380 -436 0
-380 -450 0
-380 -464 0
-380 -478 0
-394 -408 0
-394 -422 0
-394 -436 0
-394 -450 0
-394 -464 0
-394 -478 0
-408 -422 0
-408 -436 0
-408 -450 0
-408 -464 0
-408 -478 0
-422 -436 0
-422 -450 0
-422 -464 0
-422 -478 0
-436 -450 0
-436 -464 0
-436 -478 0
-450 -464 0
-450 -478 0
-464 -478 0
-381 -395 0
-381 -409 0
-381 -423 0
-381 -437 0
-381 -451 0
-381 -465 0
-381 -479 0
-395 -409 0
-395 -423 0
-395 -437 0
-395 -451 0
-395 -465 0
-395 -479 0
-409 -423 0
-409 -437 0
-409 -451 0
-409 -465 0
-409 -479 0
-423 -437 0
-423 -451 0
-423 -465 0
-423 -479 0
-437 -451 0
-437 -465 0
-437 -479 0
-451 -465 0
-451 -479 0
-465 -479 0
-382 -396 0
-382 -410 0
-382 -424 0
-382 -438 0
-382 -452 0
-382 -466 0
-382 -480 0
-396 -410 0
-396 -424 0
-396 -438 0
-396 -452 0
-396 -466 0
-396 -480 0
-410 -424 0
-410 -438 0
-410 -452 0
-410 -466 0
-410 -480 0
-424 -438 0
-424 -452 0
-424 -466 0
-424 -480 0
-438 -452 0
-438 -466 0
-438 -480 0
-452 -466 0
-452 -480 0
-466 -480 0
-383 -397 0
-383 -411 0
-383 -425 0
-383 -439 0
-383 -453 0
-383 -467 0
-383 -481 0
-397 -411 0
-397 -425 0
-397 -439 0
-397 -453 0
-397 -467 0
-397 -481 0
-411 -425 0
-411 -439 0
-411 -453 0
-411 -467 0
-411 -481 0
-425 -439 0
-425 -453 0
-425 -467 0
-425 -481 0
-439 -453 0
-439 -467 0
-439 -481 0
-453 -467 0
-453 -481 0
-467 -481 0
-384 -398 0
-384 -412 0
-384 -426 0
-384 -440 0
-384 -454 0
-384 -468 0
-384 -482 0
-398 -412 0
-398 -426 0
-398 -440 0
-398 -454 0
-398 -468 0
-398 -482 0
-412 -426 0
-412 -440 0
-412 -454 0
-412 -468 0
-412 -482 0
-426 -440 0
-426 -454 0
-426 -468 0
-426 -482 0
-440 -454 0
-440 -468 0
-440 -482 0
-454 -468 0
-454 -482 0
-468 -482 0
-385 -399 0
-385 -413 0
-385 -427 0
-385 -441 0
-385 -455 0
-385 -469 0
-385 -483 0
-399 -413 0
-399 -427 0
-399 -441 0
-399 -455 0
-399 -469 0
-399 -483 0
-413 -427 0
-413 -441 0
-413 -455 0
-413 -469 0
-413 -483 0
-427 -441 0
-427 -455 0
-427 -469 0
-427 -483 0
-441 -455 0
-441 -469 0
-441 -483 0
-455 -469 0
-455 -483 0
-469 -483 0
-386 -400 0
-386 -414 0
-386 -428 0
-386 -442 0
-386 -456 0
-386 -470 0
-386 -484 0
-400 -414 0
-400 -428 0
-400 -442 0
-400 -456 0
-400 -470 0
-400 -484 0
-414 -428 0
-414 -442 0
-414 -456 0
-414 -470 0
-414 -484 0
-428 -442 0
-428 -456 0
-428 -470 0
-428 -484 0
-442 -456 0
-442 -470 0
-442 -484 0
-456 -470 0
-456 -484 0
-470 -484 0
-387 -401 0
-387 -415 0
-387 -429 0
-387 -443 0
-387 -457 0
-387 -471 0
-387 -485 0
-401 -415 0
-401 -429 0
-401 -443 0
-401 -457 0
-401 -471 0
-401 -485 0
-415 -429 0
-415 -443 0
-415 -457 0
-415 -471 0
-415 -485 0
-429 -443 0
-429 -457 0
-429 -471 0
-429 -485 0
-443 -457 0
-443 -471 0
-443 -485 0
-457 -471 0
-457 -485 0
-471 -485 0
-388 -402 0
-388 -416 0
-388 -430 0
-388 -444 0
-388 -458 0
-388 -472 0
-388 -486 0
-402 -416 0
-402 -430 0
-402 -444 0
-402 -458 0
-402 -472 0
-402 -486 0
-416 -430 0
-416 -444 0
-416 -458 0
-416 -472 0
-416 -486 0
-430 -444 0
-430 -458 0
-430 -472 0
-430 -486 0
-444 -458 0
-444 -472 0
-444 -486 0
-458 -472 0
-458 -486 0
-472 -486 0
-389 -403 0
-389 -417 0
-389 -431 0
-389 -445 0
-389 -459 0
-389 -473 0
-389 -487 0
-403 -417 0
-403 -431 0
-403 -445 0
-403 -459 0
-403 -473 0
-403 -487 0
-417 -431 0
-417 -445 0
-417 -459 0
-417 -473 0
-417 -487 0
-431 -445 0
-431 -459 0
-431 -473 0
-431 -487 0
-445 -459 0
-445 -473 0
-445 -487 0
-459 -473 0
-459 -487 0
-473 -487 0
376 390 404 418 432 446 460 474 0
377 391 405 419 433 447 461 475 0
378 392 406 420 434 448 462 476 0
379 393 407 421 435 449 463 477 0
380 394 408 422 436 450 464 478 0
381 395 409 423 437 451 465 479 0
382 396 410 424 438 452 466 480 0
383 397 411 425 439 453 467 481 0
384 398 412 426 440 454 468 482 0
385 399 413 427 441 455 469 483 0
386 400 414 428 442 456 470 484 0
387 401 415 429 443 457 471 485 0
388 402 416 430 444 458 472 486 0
389 403 417 431 445 459 473 487 0
-376 -6 -31 0
-376 6 31 0
-390 -31 -56 0
-390 31 56 0
-404 -56 -81 0
-404 56 81 0
-418 -81 -106 0
-418 81 106 0
-432 -106 -131 0
-432 106 131 0
-446 -131 -156 0
-446 131 156 0
-460 -156 -181 0
-460 156 181 0
-474 -181 -206 0
-474 181 206 0
-377 -6 -31 0
-377 6 31 0
-391 -31 -56 0
-391 31 56 0
-405 -56 -81 0
-405 56 81 0
-419 -81 -106 0
-419 81 106 0
-433 -106 -131 0
-433 106 131 0
-447 -131 -156 0
-447 131 156 0
-461 -156 -181 0
-461 156 181 0
-475 -181 -206 0
-475 181 206 0
-378 -16 -41 0
-378 16 41 0
-392 -41 -66 0
-392 41 66 0
-406 -66 -91 0
-406 66 91 0
-420 -91 -116 0
-420 91 116 0
-434 -116 -141 0
-434 116 141 0
-448 -141 -166 0
-448 141 166 0
-462 -166 -191 0
-462 166 191 0
-476 -191 -216 0
-476 191 216 0
-379 -16 -41 0
-379 16 41 0
-393 -41 -66 0
-393 41 66 0
-407 -66 -91 0
-407 66 91 0
-421 -91 -116 0
-421 91 116 0
-435 -116 -141 0
-435 116 141 0
-449 -141 -166 0
-449 141 166 0
-463 -166 -191 0
-463 166 191 0
-477 -191 -216 0
-477 191 216 0
-380 -22 -47 0
-380 22 47 0
-394 -47 -72 0
-394 47 72 0
-408 -72 -97 0
-408 72 97 0
-422 -97 -122 0
-422 97 122 0
-436 -122 -147 0
-436 122 147 0
-450 -147 -172 0
-450 147 172 0
-464 -172 -197 0
-464 172 197 0
-478 -197 -222 0
-478 197 222 0
-381 -22 -47 0
-381 22 47 0
-395 -47 -72 0
-395 47 72 0
-409 -72 -97 0
-409 72 97 0
-423 -97 -122 0
-423 97 122 0
-437 -122 -147 0
-437 122 147 0
-451 -147 -172 0
-451 147 172 0
-465 -172 -197 0
-465 172 197 0
-479 -197 -222 0
-479 197 222 0
-382 -18 -43 0
-382 18 43 0
-396 -43 -68 0
-396 43 68 0
-410 -68 -93 0
-410 68 93 0
-424 -93 -118 0
-424 93 118 0
-438 -118 -143 0
-438 118 143 0
-452 -143 -168 0
-452 143 168 0
-466 -168 -193 0
-466 168 193 0
-480 -193 -218 0
-480 193 218 0
-383 -18 -43 0
-383 18 43 0
-397 -43 -68 0
-397 43 68 0
-411 -68 -93 0
-411 68 93 0
-425 -93 -118 0
-425 93 118 0
-439 -118 -143 0
-439 118 143 0
-453 -143 -168 0
-453 143 168 0
-467 -168 -193 0
-467 168 193 0
-481 -193 -218 0
-481 193 218 0
-384 -23 -48 0
-384 23 48 0
-398 -48 -73 0
-398 48 73 0
-412 -73 -98 0
-412 73 98 0
-426 -98 -123 0
-426 98 123 0
-440 -123 -148 0
-440 123 148 0
-454 -148 -173 0
-454 148 173 0
-468 -173 -198 0
-468 173 198 0
-482 -198 -223 0
-482 198 223 0
-385 -23 -48 0
-385 23 48 0
-399 -48 -73 0
-399 48 73 0
-413 -73 -98 0
-413 73 98 0
-427 -98 -123 0
-427 98 123 0
-441 -123 -148 0
-441 123 148 0
-455 -148 -173 0
-455 148 173 0
-469 -173 -198 0
-469 173 198 0
-483 -198 -223 0
-483 198 223 0
-386 -23 -48 0
-386 23 48 0
-400 -48 -73 0
-400 48 73 0
-414 -73 -98 0
-414 73 98 0
-428 -98 -123 0
-428 98 123 0
-442 -123 -148 0
-442 123 148 0
-456 -148 -173 0
-456 148 173 0
-470 -173 -198 0
-470 173 198 0
-484 -198 -223 0
-484 198 223 0
-387 -24 -49 0
-387 24 49 0
-401 -49 -74 0
-401 49 74 0
-415 -74 -99 0
-415 74 99 0
-429 -99 -124 0
-429 99 124 0
-443 -124 -149 0
-443 124 149 0
-457 -149 -174 0
-457 149 174 0
-471 -174 -199 0
-471 174 199 0
-485 -199 -224 0
-485 199 224 0
-388 -24 -49 0
-388 24 49 0
-402 -49 -74 0
-402 49 74 0
-416 -74 -99 0
-416 74 99 0
-430 -99 -124 0
-430 99 124 0
-444 -124 -149 0
-444 124 149 0
-458 -149 -174 0
-458 149 174 0
-472 -174 -199 0
-472 174 199 0
-486 -199 -224 0
-486 199 224 0
-389 -24 -49 0
-389 24 49 0
-403 -49 -74 0
-403 49 74 0
-417 -74 -99 0
-417 74 99 0
-431 -99 -124 0
-431 99 124 0
-445 -124 -149 0
-445 124 149 0
-459 -149 -174 0
-459 149 174 0
-473 -174 -199 0
-473 174 199 0
-487 -199 -224 0
-487 199 224 0
-6 31 376 377 0
6 -31 376 377 0
-11 36 0
11 -36 0
-16 41 378 379 0
16 -41 378 379 0
-21 46 0
21 -46 0
-12 37 0
12 -37 0
-17 42 0
17 -42 0
-22 47 380 381 0
22 -47 380 381 0
-18 43 382 383 0
18 -43 382 383 0
-23 48 384 385 386 0
23 -48 384 385 386 0
-24 49 387 388 389 0
24 -49 387 388 389 0
-31 56 390 391 0
31 -56 390 391 0
-36 61 0
36 -61 0
-41 66 392 393 0
41 -66 392 393 0
-46 71 0
46 -71 0
-37 62 0
37 -62 0
-42 67 0
42 -67 0
-47 72 394 395 0
47 -72 394 395 0
-43 68 396 397 0
43 -68 396 397 0
-48 73 398 399 400 0
48 -73 398 399 400 0
-49 74 401 402 403 0
49 -74 401 402 403 0
-56 81 404 405 0
56 -81 404 405 0
-61 86 0
61 -86 0
-66 91 406 407 0
66 -91 406 407 0
-71 96 0
71 -96 0
-62 87 0
62 -87 0
-67 92 0
67 -92 0
-72 97 408 409 0
72 -97 408 409 0
-68 93 410 411 0
68 -93 410 411 0
-73 98 412 413 414 0
73 -98 412 413 414 0
-74 99 415 416 417 0
74 -99 415 416 417 0
-81 106 418 419 0
81 -106 418 419 0
-86 111 0
86 -111 0
-91 116 420 421 0
91 -116 420 421 0
-96 121 0
96 -121 0
-87 112 0
87 -112 0
-92 117 0
92 -117 0
-97 122 422 423 0
97 -122 422 423 0
-93 118 424 425 0
93 -118 424 425 0
-98 123 426 427 428 0
98 -123 426 427 428 0
-99 124 429 430 431 0
99 -124 429 430 431 0
-106 131 432 433 0
106 -131 432 433 0
-111 136 0
111 -136 0
-116 141 434 435 0
116 -141 434 435 0
-121 146 0
121 -146 0
-112 137 0
112 -137 0
-117 142 0
117 -142 0
-122 147 436 437 0
122 -147 436 437 0
-118 143 438 439 0
118 -143 438 439 0
-123 148 440 441 442 0
123 -148 440 441 442 0
-124 149 443 444 445 0
124 -149 443 444 445 0
-131 156 446 447 0
131 -156 446 447 0
-136 161 0
136 -161 0
-141 166 448 449 0
141 -166 448 449 0
-146 171 0
146 -171 0
-137 162 0
137 -162 0
-142 167 0
142 -167 0
-147 172 450 451 0
147 -172 450 451 0
-143 168 452 453 0
143 -168 452 453 0
-148 173 454 455 456 0
148 -173 454 455 456 0
-149 174 457 458 459 0
149 -174 457 458 459 0
-156 181 460 461 0
156 -181 460 461 0
-161 186 0
161 -186 0
-166 191 462 463 0
166 -191 462 463 0
-171 196 0
171 -196 0
-162 187 0
162 -187 0
-167 192 0
167 -192 0
-172 197 464 465 0
172 -197 464 465 0
-168 193 466 467 0
168 -193 466 467 0
-173 198 468 469 470 0
173 -198 468 469 470 0
-174 199 471 472 473 0
174 -199 471 472 473 0
-181 206 474 475 0
181 -206 474 475 0
-186 211 0
186 -211 0
-191 216 476 477 0
191 -216 476 477 0
-196 221 0
196 -221 0
-187 212 0
187 -212 0
-192 217 0
192 -217 0
-197 222 478 479 0
197 -222 478 479 0
-193 218 480 481 0
193 -218 480 481 0
-198 223 482 483 484 0
198 -223 482 483 484 0
-199 224 485 486 487 0
199 -224 485 486 487 0
-376 -377 0
-376 -378 0
-376 -379 0
-376 -380 0
-376 -381 0
-377 -376 0
-377 -378 0
-377 -379 0
-377 -380 0
-377 -381 0
-378 -376 0
-378 -377 0
-378 -379 0
-378 -382 0
-378 -383 0
-378 -387 0
-378 -388 0
-378 -389 0
-379 -376 0
-379 -377 0
-379 -378 0
-379 -382 0
-379 -383 0
-379 -387 0
-379 -388 0
-379 -389 0
-380 -376 0
-380 -377 0
-380 -381 0
-380 -384 0
-380 -385 0
-380 -386 0
-380 -387 0
-380 -388 0
-380 -389 0
-381 -376 0
-381 -377 0
-381 -380 0
-381 -384 0
-381 -385 0
-381 -386 0
-381 -387 0
-381 -388 0
-381 -389 0
-382 -378 0
-382 -379 0
-382 -383 0
-382 -384 0
-382 -385 0
-382 -386 0
-382 -387 0
-382 -388 0
-382 -389 0
-383 -378 0
-383 -379 0
-383 -382 0
-383 -384 0
-383 -385 0
-383 -386 0
-383 -387 0
-383 -388 0
-383 -389 0
-384 -380 0
-384 -381 0
-384 -382 0
-384 -383 0
-384 -385 0
-384 -386 0
-384 -387 0
-384 -388 0
-384 -389 0
-385 -380 0
-385 -381 0
-385 -382 0
-385 -383 0
-385 -384 0
-385 -386 0
-385 -387 0
-385 -388 0
-385 -389 0
-386 -380 0
-386 -381 0
-386 -382 0
-386 -383 0
-386 -384 0
-386 -385 0
-386 -387 0
-386 -388 0
-386 -389 0
-387 -378 0
-387 -379 0
-387 -380 0
-387 -381 0
-387 -382 0
-387 -383 0
-387 -384 0
-387 -385 0
-387 -386 0
-387 -388 0
-387 -389 0
-388 -378 0
-388 -379 0
-388 -380 0
-388 -381 0
-388 -382 0
-388 -383 0
-388 -384 0
-388 -385 0
-388 -386 0
-388 -387 0
-388 -389 0
-389 -378 0
-389 -379 0
-389 -380 0
-389 -381 0
-389 -382 0
-389 -383 0
-389 -384 0
-389 -385 0
-389 -386 0
-389 -387 0
-389 -388 0
-390 -391 0
-390 -392 0
-390 -393 0
-390 -394 0
-390 -395 0
-391 -390 0
-391 -392 0
-391 -393 0
-391 -394 0
-391 -395 0
-392 -390 0
-392 -391 0
-392 -393 0
-392 -396 0
-392 -397 0
-392 -401 0
-392 -402 0
-392 -403 0
-393 -390 0
-393 -391 0
-393 -392 0
-393 -396 0
-393 -397 0
-393 -401 0
-393 -402 0
-393 -403 0
-394 -390 0
-394 -391 0
-394 -395 0
-394 -398 0
-394 -399 0
-394 -400 0
-394 -401 0
-394 -402 0
-394 -403 0
-395 -390 0
-395 -391 0
-395 -394 0
-395 -398 0
-395 -399 0
-395 -400 0
-395 -401 0
-395 -402 0
-395 -403 0
-396 -392 0
-396 -393 0
-396 -397 0
-396 -398 0
-396 -399 0
-396 -400 0
-396 -401 0
-396 -402 0
-396 -403 0
-397 -392 0
-397 -393 0
-397 -396 0
-397 -398 0
-397 -399 0
-397 -400 0
-397 -401 0
-397 -402 0
-397 -403 0
-398 -394 0
-398 -395 0
-398 -396 0
-398 -397 0
-398 -399 0
-398 -400 0
-398 -401 0
-398 -402 0
-398 -403 0
-399 -394 0
-399 -395 0
-399 -396 0
-399 -397 0
-399 -398 0
-399 -400 0
-399 -401 0
-399 -402 0
-399 -403 0
-400 -394 0
-400 -395 0
-400 -396 0
-400 -397 0
-400 -398 0
-400 -399 0
-400 -401 0
-400 -402 0
-400 -403 0
-401 -392 0
-401 -393 0
-401 -394 0
-401 -395 0
-401 -396 0
-401 -397 0
-401 -398 0
-401 -399 0
-401 -400 0
-401 -402 0
-401 -403 0
-402 -392 0
-402 -393 0
-402 -394 0
-402 -395 0
-402 -396 0
-402 -397 0
-402 -398 0
-402 -399 0
-402 -400 0
-402 -401 0
-402 -403 0
-403 -392 0
-403 -393 0
-403 -394 0
-403 -395 0
-403 -396 0
-403 -397 0
-403 -398 0
-403 -399 0
-403 -400 0
-403 -401 0
-403 -402 0
-404 -405 0
-404 -406 0
-404 -407 0
-404 -408 0
-404 -409 0
-405 -404 0
-405 -406 0
-405 -407 0
-405 -408 0
-405 -409 0
-406 -404 0
-406 -405 0
-406 -407 0
-406 -410 0
-406 -411 0
-406 -415 0
-406 -416 0
-406 -417 0
-407 -404 0
-407 -405 0
-407 -406 0
-407 -410 0
-407 -411 0
-407 -415 0
-407 -416 0
-407 -417 0
-408 -404 0
-408 -405 0
-408 -409 0
-408 -412 0
-408 -413 0
-408 -414 0
-408 -415 0
-408 -416 0
-408 -417 0
-409 -404 0
-409 -405 0
-409 -408 0
-409 -412 0
-409 -413 0
-409 -414 0
-409 -415 0
-409 -416 0
-409 -417 0
-410 -406 0
-410 -407 0
-410 -411 0
-410 -412 0
-410 -413 0
-410 -414 0
-410 -415 0
-410 -416 0
-410 -417 0
-411 -406 0
-411 -407 0
-411 -410 0
-411 -412 0
-411 -413 0
-411 -414 0
-411 -415 0
-411 -416 0
-411 -417 0
-412 -408 0
-412 -409 0
-412 -410 0
-412 -411 0
-412 -413 0
-412 -414 0
-412 -415 0
-412 -416 0
-412 -417 0
-413 -408 0
-413 -409 0
-413 -410 0
-413 -411 0
-413 -412 0
-413 -414 0
-413 -415 0
-413 -416 0
-413 -417 0
-414 -408 0
-414 -409 0
-414 -410 0
-414 -411 0
-414 -412 0
-414 -413 0
-414 -415 0
-414 -416 0
-414 -417 0
-415 -406 0
-415 -407 0
-415 -408 0
-415 -409 0
-415 -410 0
-415 -411 0
-415 -412 0
-415 -413 0
-415 -414 0
-415 -416 0
-415 -417 0
-416 -406 0
-416 -407 0
-416 -408 0
-416 -409 0
-416 -410 0
-416 -411 0
-416 -412 0
-416 -413 0
-416 -414 0
-416 -415 0
-416 -417 0
-417 -406 0
-417 -407 0
-417 -408 0
-417 -409 0
-417 -410 0
-417 -411 0
-417 -412 0
-417 -413 0
-417 -414 0
-417 -415 0
-417 -416 0
-418 -419 0
-418 -420 0
-418 -421 0
-418 -422 0
-418 -423 0
-419 -418 0
-419 -420 0
-419 -421 0
-419 -422 0
-419 -423 0
-420 -418 0
-420 -419 0
-420 -421 0
-420 -424 0
-420 -425 0
-420 -429 0
-420 -430 0
-420 -431 0
-421 -418 0
-421 -419 0
-421 -420 0
-421 -424 0
-421 -425 0
-421 -429 0
-421 -430 0
-421 -431 0
-422 -418 0
-422 -419 0
-422 -423 0
-422 -426 0
-422 -427 0
-422 -428 0
-422 -429 0
-422 -430 0
-422 -431 0
-423 -418 0
-423 -419 0
-423 -422 0
-423 -426 0
-423 -427 0
-423 -428 0
-423 -429 0
-423 -430 0
-423 -431 0
-424 -420 0
-424 -421 0
-424 -425 0
-424 -426 0
-424 -427 0
-424 -428 0
-424 -429 0
-424 -430 0
-424 -431 0
-425 -420 0
-425 -421 0
-425 -424 0
-425 -426 0
-425 -427 0
-425 -428 0
-425 -429 0
-425 -430 0
-425 -431 0
-426 -422 0
-426 -423 0
-426 -424 0
-426 -425 0
-426 -427 0
-426 -428 0
-426 -429 0
-426 -430 0
-426 -431 0
-427 -422 0
-427 -423 0
-427 -424 0
-427 -425 0
-427 -426 0
-427 -428 0
-427 -429 0
-427 -430 0
-427 -431 0
-428 -422 0
-428 -423 0
-428 -424 0
-428 -425 0
-428 -426 0
-428 -427 0
-428 -429 0
-428 -430 0
-428 -431 0
-429 -420 0
-429 -421 0
-429 -422 0
-429 -423 0
-429 -424 0
-429 -425 0
-429 -426 0
-429 -427 0
-429 -428 0
-429 -430 0
-429 -431 0
-430 -420 0
-430 -421 0
-430 -422 0
-430 -423 0
-430 -424 0
-430 -425 0
-430 -426 0
-430 -427 0
-430 -428 0
-430 -429 0
-430 -431 0
-431 -420 0
-431 -421 0
-431 -422 0
-431 -423 0
-431 -424 0
-431 -425 0
-431 -426 0
-431 -427 0
-431 -428 0
-431 -429 0
-431 -430 0
-432 -433 0
-432 -434 0
-432 -435 0
-432 -436 0
-432 -437 0
-433 -432 0
-433 -434 0
-433 -435 0
-433 -436 0
-433 -437 0
-434 -432 0
-434 -433 0
-434 -435 0
-434 -438 0
-434 -439 0
-434 -443 0
-434 -444 0
-434 -445 0
-435 -432 0
-435 -433 0
-435 -434 0
-435 -438 0
-435 -439 0
-435 -443 0
-435 -444 0
-435 -445 0
-436 -432 0
-436 -433 0
-436 -437 0
-436 -440 0
-436 -441 0
-436 -442 0
-436 -443 0
-436 -444 0
-436 -445 0
-437 -432 0
-437 -433 0
-437 -436 0
-437 -440 0
-437 -441 0
-437 -442 0
-437 -443 0
-437 -444 0
-437 -445 0
-438 -434 0
-438 -435 0
-438 -439 0
-438 -440 0
-438 -441 0
-438 -442 0
-438 -443 0
-438 -444 0
-438 -445 0
-439 -434 0
-439 -435 0
-439 -438 0
-439 -440 0
-439 -441 0
-439 -442 0
-439 -443 0
-439 -444 0
-439 -445 0
-440 -436 0
-440 -437 0
-440 -438 0
-440 -439 0
-440 -441 0
-440 -442 0
-440 -443 0
-440 -444 0
-440 -445 0
-441 -436 0
-441 -437 0
-441 -438 0
-441 -439 0
-441 -440 0
-441 -442 0
-441 -443 0
-441 -444 0
-441 -445 0
-442 -436 0
-442 -437 0
-442 -438 0
-442 -439 0
-442 -440 0
-442 -441 0
-442 -443 0
-442 -444 0
-442 -445 0
-443 -434 0
-443 -435 0
-443 -436 0
-443 -437 0
-443 -438 0
-443 -439 0
-443 -440 0
-443 -441 0
-443 -442 0
-443 -444 0
-443 -445 0
-444 -434 0
-444 -435 0
-444 -436 0
-444 -437 0
-444 -438 0
-444 -439 0
-444 -440 0
-444 -441 0
-444 -442 0
-444 -443 0
-444 -445 0
-445 -434 0
-445 -435 0
-445 -436 0
-445 -437 0
-445 -438 0
-445 -439 0
-445 -440 0
-445 -441 0
-445 -442 0
-445 -443 0
-445 -444 0
-446 -447 0
-446 -448 0
-446 -449 0
-446 -450 0
-446 -451 0
-447 -446 0
-447 -448 0
-447 -449 0
-447 -450 0
-447 -451 0
-448 -446 0
-448 -447 0
-448 -449 0
-448 -452 0
-448 -453 0
-448 -457 0
-448 -458 0
-448 -459 0
-449 -446 0
-449 -447 0
-449 -448 0
-449 -452 0
-449 -453 0
-449 -457 0
-449 -458 0
-449 -459 0
-450 -446 0
-450 -447 0
-450 -451 0
-450 -454 0
-450 -455 0
-450 -456 0
-450 -457 0
-450 -458 0
-450 -459 0
-451 -446 0
-451 -447 0
-451 -450 0
-451 -454 0
-451 -455 0
-451 -456 0
-451 -457 0
-451 -458 0
-451 -459 0
-452 -448 0
-452 -449 0
-452 -453 0
-452 -454 0
-452 -455 0
-452 -456 0
-452 -457 0
-452 -458 0
-452 -459 0
-453 -448 0
-453 -449 0
-453 -452 0
-453 -454 0
-453 -455 0
-453 -456 0
-453 -457 0
-453 -458 0
-453 -459 0
-454 -450 0
-454 -451 0
-454 -452 0
-454 -453 0
-454 -455 0
-454 -456 0
-454 -457 0
-454 -458 0
-454 -459 0
-455 -450 0
-455 -451 0
-455 -452 0
-455 -453 0
-455 -454 0
-455 -456 0
-455 -457 0
-455 -458 0
-455 -459 0
-456 -450 0
-456 -451 0
-456 -452 0
-456 -453 0
-456 -454 0
-456 -455 0
-456 -457 0
-456 -458 0
-456 -459 0
-457 -448 0
-457 -449 0
-457 -450 0
-457 -451 0
-457 -452 0
-457 -453 0
-457 -454 0
-457 -455 0
-457 -456 0
-457 -458 0
-457 -459 0
-458 -448 0
-458 -449 0
-458 -450 0
-458 -451 0
-458 -452 0
-458 -453 0
-458 -454 0
-458 -455 0
-458 -456 0
-458 -457 0
-458 -459 0
-459 -448 0
-459 -449 0
-459 -450 0
-459 -451 0
-459 -452 0
-459 -453 0
-459 -454 0
-459 -455 0
-459 -456 0
-459 -457 0
-459 -458 0
-460 -461 0
-460 -462 0
-460 -463 0
-460 -464 0
-460 -465 0
-461 -460 0
-461 -462 0
-461 -463 0
-461 -464 0
-461 -465 0
-462 -460 0
-462 -461 0
-462 -463 0
-462 -466 0
-462 -467 0
-462 -471 0
-462 -472 0
-462 -473 0
-463 -460 0
-463 -461 0
-463 -462 0
-463 -466 0
-463 -467 0
-463 -471 0
-463 -472 0
-463 -473 0
-464 -460 0
-464 -461 0
-464 -465 0
-464 -468 0
-464 -469 0
-464 -470 0
-464 -471 0
-464 -472 0
-464 -473 0
-465 -460 0
-465 -461 0
-465 -464 0
-465 -468 0
-465 -469 0
-465 -470 0
-465 -471 0
-465 -472 0
-465 -473 0
-466 -462 0
-466 -463 0
-466 -467 0
-466 -468 0
-466 -469 0
-466 -470 0
-466 -471 0
-466 -472 0
-466 -473 0
-467 -462 0
-467 -463 0
-467 -466 0
-467 -468 0
-467 -469 0
-467 -470 0
-467 -471 0
-467 -472 0
-467 -473 0
-468 -464 0
-468 -465 0
-468 -466 0
-468 -467 0
-468 -469 0
-468 -470 0
-468 -471 0
-468 -472 0
-468 -473 0
-469 -464 0
-469 -465 0
-469 -466 0
-469 -467 0
-469 -468 0
-469 -470 0
-469 -471 0
-469 -472 0
-469 -473 0
-470 -464 0
-470 -465 0
-470 -466 0
-470 -467 0
-470 -468 0
-470 -469 0
-470 -471 0
-470 -472 0
-470 -473 0
-471 -462 0
-471 -463 0
-471 -464 0
-471 -465 0
-471 -466 0
-471 -467 0
-471 -468 0
-471 -469 0
-471 -470 0
-471 -472 0
-471 -473 0
-472 -462 0
-472 -463 0
-472 -464 0
-472 -465 0
-472 -466 0
-472 -467 0
-472 -468 0
-472 -469 0
-472 -470 0
-472 -471 0
-472 -473 0
-473 -462 0
-473 -463 0
-473 -464 0
-473 -465 0
-473 -466 0
-473 -467 0
-473 -468 0
-473 -469 0
-473 -470 0
-473 -471 0
-473 -472 0
-474 -475 0
-474 -476 0
-474 -477 0
-474 -478 0
-474 -479 0
-475 -474 0
-475 -476 0
-475 -477 0
-475 -478 0
-475 -479 0
-476 -474 0
-476 -475 0
-476 -477 0
-476 -480 0
-476 -481 0
-476 -485 0
-476 -486 0
-476 -487 0
-477 -474 0
-477 -475 0
-477 -476 0
-477 -480 0
-477 -481 0
-477 -485 0
-477 -486 0
-477 -487 0
-478 -474 0
-478 -475 0
-478 -479 0
-478 -482 0
-478 -483 0
-478 -484 0
-478 -485 0
-478 -486 0
-478 -487 0
-479 -474 0
-479 -475 0
-479 -478 0
-479 -482 0
-479 -483 0
-479 -484 0
-479 -485 0
-479 -486 0
-479 -487 0
-480 -476 0
-480 -477 0
-480 -481 0
-480 -482 0
-480 -483 0
-480 -484 0
-480 -485 0
-480 -486 0
-480 -487 0
-481 -476 0
-481 -477 0
-481 -480 0
-481 -482 0
-481 -483 0
-481 -484 0
-481 -485 0
-481 -486 0
-481 -487 0
-482 -478 0
-482 -479 0
-482 -480 0
-482 -481 0
-482 -483 0
-482 -484 0
-482 -485 0
-482 -486 0
-482 -487 0
-483 -478 0
-483 -479 0
-483 -480 0
-483 -481 0
-483 -482 0
-483 -484 0
-483 -485 0
-483 -486 0
-483 -487 0
-484 -478 0
-484 -479 0
-484 -480 0
-484 -481 0
-484 -482 0
-484 -483 0
-484 -485 0
-484 -486 0
-484 -487 0
-485 -476 0
-485 -477 0
-485 -478 0
-485 -479 0
-485 -480 0
-485 -481 0
-485 -482 0
-485 -483 0
-485 -484 0
-485 -486 0
-485 -487 0
-486 -476 0
-486 -477 0
-486 -478 0
-486 -479 0
-486 -480 0
-486 -481 0
-486 -482 0
-486 -483 0
-486 -484 0
-486 -485 0
-486 -487 0
-487 -476 0
-487 -477 0
-487 -478 0
-487 -479 0
-487 -480 0
-487 -481 0
-487 -482 0
-487 -483 0
-487 -484 0
-487 -485 0
-487 -486 0